
Log started (V12.10.0.0) Tue Aug 18 12:10:26 2020

New value for parallel optimization mode: -1
New value for mixed integer optimality gap tolerance: 0.005
New value for feasibility tolerance: 1e-09
New value for deterministic time limit in ticks: 2e+06

Problem 'C:\Users\wenmi\Desktop\competitiveMPEC\logs\tmp42otpofn.pyomo.lp' read.
Read time = 0.17 sec. (14.67 ticks)
MIP start file 'C:\Users\wenmi\Desktop\competitiveMPEC\logs\tmpg_ul4czd.cplex.mst' read.

Problem name         : C:\Users\wenmi\Desktop\competitiveMPEC\logs\tmp42otpofn.pyomo.lp
Objective sense      : Maximize
Variables            :   54525  [Nneg: 1,  Box: 22720,  Free: 4464,
                                 Binary: 27340]
Objective nonzeros   :    9691
Linear constraints   :  123205  [Less: 41346,  Greater: 59096,  Equal: 22763]
  Nonzeros           :  299830
  RHS nonzeros       :   67600

Variables            : Min LB: -5000.000        Max UB: 1000000.       
Objective nonzeros   : Min   : 0.1000000        Max   : 2500.000       
Linear constraints   :
  Nonzeros           : Min   : 0.1000000        Max   : 1000000.       
  RHS nonzeros       : Min   : 0.1000000        Max   : 1000000.       
Version identifier: 12.10.0.0 | 2019-11-26 | 843d4de2ae
CPXPARAM_Parallel                                -1
CPXPARAM_Simplex_Tolerances_Feasibility          1.0000000000000001e-09
CPXPARAM_DetTimeLimit                            2000000
CPXPARAM_MIP_Tolerances_MIPGap                   0.0050000000000000001
Warning:  No solution found from 1 MIP starts.
Retaining values of one MIP start for possible repair.
Tried aggregator 3 times.
MIP Presolve eliminated 88813 rows and 19933 columns.
MIP Presolve added 3337 rows and 0 columns.
MIP Presolve modified 26007 coefficients.
Aggregator did 12960 substitutions.
Reduced MIP has 24769 rows, 21050 columns, and 75066 nonzeros.
Reduced MIP has 8315 binaries, 0 generals, 0 SOSs, and 0 indicators.
Presolve time = 0.20 sec. (188.18 ticks)
Probing fixed 376 vars, tightened 3977 bounds.
Probing time = 0.03 sec. (17.84 ticks)
Tried aggregator 2 times.
Detecting symmetries...
MIP Presolve eliminated 849 rows and 755 columns.
MIP Presolve modified 2990 coefficients.
Aggregator did 36 substitutions.
Reduced MIP has 23884 rows, 20259 columns, and 72500 nonzeros.
Reduced MIP has 7938 binaries, 0 generals, 0 SOSs, and 0 indicators.
Presolve time = 0.08 sec. (93.99 ticks)
Probing fixed 0 vars, tightened 239 bounds.
Probing time = 0.09 sec. (22.18 ticks)
Clique table members: 44011.
MIP emphasis: balance optimality and feasibility.
MIP search method: dynamic search.
Parallel mode: opportunistic, using up to 16 threads.
Root relaxation solution time = 0.39 sec. (648.94 ticks)

        Nodes                                         Cuts/
   Node  Left     Objective  IInf  Best Integer    Best Bound    ItCnt     Gap

      0     0    75760.2413   170                  75760.2413     5783         
      0     0    75070.1210   170                    Cuts: 74     5845         
      0     0    75045.7717   170                    Cuts: 13     5869         
      0     0    74992.7910   170                     Cuts: 6     5890         
      0     0    74992.7910   170                     Cuts: 2     5892         
      0     0    74992.7910   170                     Cuts: 2     5895         
      0     0    74992.7910   170                    Cuts: 13     5902         
